NAME : instances/clustered-mixed-tsp/instance-50.tsp
COMMENT : No Comment
TYPE : TSP
DIMENSION: 53
EDGE_WEIGHT_TYPE : EUC_2D
NODE_COORD_SECTION
1 131 911 
2 443 695 
3 479 779 
4 239 407 
5 -313 539 
6 515 599 
7 -133 839 
8 731 551 
9 -169 815 
10 563 323 
11 407 239 
12 887 731 
13 131 263 
14 383 479 
15 743 707 
16 599 659 
17 839 803 
18 -25 707 
19 779 683 
20 -157 419 
21 755 -25 
22 275 647 
23 83 839 
24 443 527 
25 -325 467 
26 719 203 
27 707 1247 
28 -229 491 
29 -313 383 
30 383 599 
31 1043 683 
32 659 383 
33 431 443 
34 383 371 
35 -121 923 
36 47 395 
37 155 935 
38 623 935 
39 923 971 
40 275 503 
41 359 515 
42 -205 467 
43 575 467 
44 -1 503 
45 1199 1247 
46 -253 683 
47 215 215 
48 455 791 
49 203 695 
50 -289 731 
51 -61 923 
52 -229 767 
53 119 1031 
EOF
